c description: Random 3-CNF over 15 variables and 64 clauses
c generator: CNFgen (0.9.2)
c copyright: (C) 2012-2022 Massimo Lauria <massimo.lauria@uniroma1.it>
c url: https://massimolauria.net/cnfgen
c command line: cnfgen --output CNF_4.28/15_bit_64_650.cnf randkcnf 3 15 64
c
p cnf 15 64
5 7 14 0
4 5 -7 0
-1 -3 4 0
1 3 8 0
7 14 -15 0
-1 -10 15 0
-2 -11 -15 0
3 -5 9 0
-3 14 15 0
-4 6 12 0
-1 8 -13 0
5 7 9 0
2 -6 -14 0
-4 6 -11 0
2 8 15 0
3 4 -13 0
6 7 9 0
3 4 -6 0
1 6 9 0
3 12 14 0
2 -3 -13 0
-7 12 -14 0
-2 -5 6 0
-9 -11 -13 0
-5 6 -10 0
-2 -4 8 0
3 -9 -11 0
1 -6 -12 0
-1 -7 -10 0
7 -8 11 0
-3 -7 -10 0
2 -11 13 0
-1 -5 8 0
-3 5 11 0
-2 -3 -14 0
-11 -12 15 0
-2 -13 -14 0
1 -3 4 0
4 6 -12 0
-6 10 -13 0
1 -4 -6 0
-7 -8 -13 0
9 -11 -12 0
6 9 -12 0
-2 5 10 0
-4 11 -12 0
5 -11 -13 0
7 10 11 0
-2 13 15 0
9 -10 11 0
-1 -8 -10 0
5 9 15 0
-2 3 -9 0
-10 -12 14 0
-7 -10 15 0
-2 -8 -13 0
3 4 -9 0
-6 9 -10 0
3 -4 -9 0
-7 -11 -12 0
-1 2 -7 0
2 -8 13 0
-1 10 14 0
-5 7 -14 0
